sat
(:added-eqs                       3522
 :arith-eq-adapter                194
 :arith-bound-propagations-lp     602
 :arith-conflicts                 339
 :arith-diseq                     304
 :arith-fixed-eqs                 580
 :arith-gcd-calls                 22
 :arith-grobner-calls             26
 :arith-grobner-conflicts         2
 :arith-horner-calls              11
 :arith-horner-cross-nested-forms 877
 :arith-lower                     1280
 :arith-make-feasible             853
 :arith-max-columns               617
 :arith-max-rows                  213
 :arith-nla-add-bounds            11
 :arith-nla-lemmas                145
 :arith-nla-propagate-bounds      171
 :arith-nla-propagate-eq          1735
 :arith-nra-calls                 7
 :arith-offset-eqs                17
 :arith-patches                   22
 :arith-patches-success           22
 :arith-upper                     1376
 :binary-propagations             1440
 :conflicts                       46
 :decisions                       3114
 :del-clause                      355
 :final-checks                    95
 :max-memory                      58.17
 :memory                          18.25
 :minimized-lits                  49
 :mk-bool-var                     1360
 :mk-clause                       513
 :mk-clause-binary                5332
 :nlsat-conflicts                 693
 :nlsat-decisions                 54
 :nlsat-propagations              20687
 :nlsat-stages                    11782
 :num-allocs                      34198653
 :num-checks                      1
 :propagations                    2160
 :rlimit-count                    743058
 :sls-arith-propagations          42
 :sls-arith-steps                 10366
 :sls-ddfw-flips                  31493.00
 :sls-ddfw-reinits                2
 :sls-ddfw-shifts                 4904.00
 :sls-num-guided-search           40
 :sls-repair-down                 381
 :sls-repair-up                   840
 :solve-eqs-elim-vars             170
 :solve-eqs-steps                 1052
 :time                            1.57
 :total-time                      1.57)
